0 2097
1 2065
2 2065
3 1907
4 1838
5 1816
6 1790
7 1748
8 1748
9 1703
10 1571
11 1571
12 1571
13 1571
14 1571
15 1543
16 1543
17 1493
18 1493
19 1438
20 1438
21 1375
22 1375
23 1375
24 1357
25 1357
26 1330
27 1330
28 1306
29 1289
30 1286
31 1286
32 1283
33 1266
34 1266
35 1265
36 1264
37 1244
38 1244
39 1244
40 1210
41 1210
42 1202
43 1202
44 1202
45 1161
46 1161
47 1161
48 1161
49 1161
50 1161
51 1161
52 1160
53 1149
54 1144
55 1122
56 1122
57 1122
58 1122
59 1122
60 1122
61 1111
62 1101
63 1096
64 1095
65 1095
66 1095
67 1095
68 1078
69 1078
70 1078
71 1078
72 1078
73 1078
74 1078
75 1050
76 1050
77 1050
78 1050
79 1050
80 1050
81 1050
82 1047
83 1047
84 1034
85 1034
86 1034
87 1034
88 1034
89 1034
90 1034
91 1025
92 1025
93 1025
94 1025
95 1025
96 1025
97 1025
98 1025
99 1025
100 1025
101 1025
102 1022
103 1022
104 1022
105 1022
106 1017
107 1017
108 1017
109 1017
110 1017
111 1011
112 1011
113 1011
114 1011
115 1011
116 1011
117 1011
118 1011
119 1010
120 1010
121 1007
122 960
123 960
124 960
125 950
126 950
127 950
128 948
129 948
130 948
131 948
132 948
133 948
134 946
135 946
136 945
137 944
138 944
139 943
140 943
141 934
142 934
143 933
144 921
145 921
146 921
147 921
148 921
149 921
150 917
151 917
152 917
153 915
154 915
155 915
156 911
157 909
158 909
159 909
160 909
161 908
162 906
163 898
164 898
165 898
166 898
167 898
168 898
169 891
170 891
171 891
172 891
173 873
174 873
175 873
176 873
177 863
178 863
179 863
180 863
181 863
182 863
183 863
184 861
185 861
186 861
187 860
188 860
189 860
190 860
191 860
192 860
193 860
194 860
195 860
196 860
197 859
198 859
199 859
200 859
201 858
202 858
203 858
204 857
205 857
206 857
207 857
208 857
209 857
210 857
211 857
212 857
213 857
214 857
215 857
216 854
217 854
218 854
219 854
220 854
221 854
222 854
223 853
224 853
225 853
226 853
227 853
228 853
229 852
230 852
231 852
232 852
233 852
234 852
235 852
236 852
237 852
238 852
239 852
240 852
241 852
242 852
243 852
244 852
245 852
246 852
247 852
248 852
249 852
250 852
251 852
252 852
253 852
254 852
255 852
256 852
257 852
258 851
259 851
260 851
261 851
262 851
263 851
264 851
265 851
266 851
267 851
268 851
269 851
270 851
271 851
272 851
273 851
274 851
275 851
276 851
277 851
278 851
279 851
280 851
281 851
282 851
283 851
284 851
285 851
286 851
287 851
288 851
289 851
290 851
291 851
292 851
293 851
294 851
295 851
296 851
297 851
298 851
299 851
300 851
301 851
302 851
303 851
304 851
305 851
306 851
307 851
308 851
309 851
310 851
311 851
312 851
313 851
314 851
315 851
316 851
317 851
318 851
319 851
320 851
321 851
322 851
323 851
324 851
325 851
326 851
327 851
328 851
329 851
330 851
331 851
332 851
333 851
334 851
335 851
336 851
337 851
338 851
339 851
340 851
341 851
342 851
343 851
344 851
345 851
346 851
347 851
348 851
349 851
350 851
351 851
352 851
353 851
354 851
355 851
356 851
357 851
358 851
359 851
360 851
361 851
362 851
363 851
364 851
365 851
366 851
367 851
368 851
369 851
370 851
371 851
372 851
373 851
374 851
375 851
376 851
377 851
378 851
379 851
380 851
381 851
382 851
383 851
384 851
385 851
386 851
387 851
388 851
389 851
390 851
391 851
392 851
393 851
394 851
395 851
396 851
397 851
398 851
399 851
400 851
401 851
402 851
403 851
404 851
405 851
406 851
407 851
408 851
409 851
410 851
411 851
412 851
413 851
414 851
415 851
416 851
417 851
418 851
419 851
420 851
421 851
422 851
423 851
424 851
425 851
426 851
427 851
428 851
429 851
430 851
431 851
432 851
433 851
434 851
435 851
436 851
437 851
438 851
439 851
440 851
441 851
442 851
443 851
444 851
445 851
446 851
447 851
448 851
449 851
450 851
451 851
452 851
453 851
454 851
455 851
456 851
457 851
458 851
459 851
460 851
461 851
462 851
463 851
464 851
465 851
466 851
467 851
468 851
469 851
470 851
471 851
472 851
473 851
474 851
475 851
476 851
477 851
478 851
479 851
480 851
481 851
482 851
483 851
484 851
485 851
486 851
487 851
488 851
489 851
490 851
491 851
492 851
493 851
494 851
495 851
496 851
497 851
498 851
499 851
500 851
501 851
502 851
503 851
504 851
505 851
506 851
507 851
508 851
509 851
510 851
511 851
512 851
513 851
514 851
515 851
516 851
517 851
518 851
519 851
520 851
521 851
522 851
523 851
524 851
525 851
526 851
527 851
528 851
529 851
530 851
531 851
532 851
533 851
534 851
535 851
536 851
537 851
538 851
539 851
540 851
541 851
542 851
543 851
544 851
545 851
546 851
547 851
548 851
549 851
550 851
551 851
552 851
553 851
554 851
555 851
556 851
557 851
558 851
559 851
560 851
561 851
562 851
563 851
564 851
565 851
566 851
567 851
568 851
569 851
570 851
571 851
572 851
573 851
574 851
575 851
576 851
577 851
578 851
579 851
580 851
581 851
582 851
583 851
584 851
585 851
586 851
587 851
588 851
589 851
590 851
591 851
592 851
593 851
594 851
595 851
596 851
597 851
598 851
599 851
600 851
601 851
602 851
603 851
604 851
605 851
606 851
607 851
608 851
609 851
610 851
611 851
612 851
613 851
614 851
615 851
616 851
617 851
618 851
619 851
620 851
621 851
622 851
623 851
624 851
625 851
626 851
627 851
628 851
629 851
630 851
631 851
632 851
633 851
634 851
635 851
636 851
637 851
638 851
639 851
640 851
641 851
642 851
643 851
644 851
645 851
646 851
647 851
648 851
649 851
650 851
651 851
652 851
653 851
654 851
655 851
656 851
657 851
658 851
659 851
660 851
661 851
662 851
663 851
664 851
665 851
666 851
667 851
668 851
669 851
670 851
671 851
672 851
673 851
674 851
675 851
676 851
677 851
678 851
679 851
680 851
681 851
682 851
683 851
684 851
685 851
686 851
687 851
688 851
689 851
690 851
691 851
692 851
693 851
694 851
695 851
696 851
697 851
698 851
699 851
700 851
701 851
702 851
703 851
704 851
705 851
706 851
707 851
708 851
709 851
710 851
711 851
712 851
713 851
714 851
715 851
716 851
717 851
718 851
719 851
720 851
721 851
722 851
723 851
724 851
725 851
726 851
727 851
728 851
729 851
730 851
731 851
732 851
733 851
734 851
735 851
736 851
737 851
738 851
739 851
740 851
741 851
742 851
743 851
744 851
745 851
746 851
747 851
748 851
749 851
750 851
751 851
752 851
753 851
754 851
755 851
756 851
757 851
758 851
759 851
760 851
761 851
762 851
763 851
764 851
765 851
766 851
767 851
768 851
769 851
770 851
771 851
772 851
773 851
774 851
775 851
776 851
777 851
778 851
779 851
780 851
781 851
782 851
783 851
784 851
785 851
786 851
787 851
788 851
789 851
790 851
791 851
792 851
793 851
794 851
795 851
796 851
797 851
798 851
799 851
800 851
801 851
802 851
803 851
804 851
805 851
806 851
807 851
808 851
809 851
810 851
811 851
812 851
813 851
814 851
815 851
816 851
817 851
818 851
819 851
820 851
821 851
822 851
823 851
824 851
825 851
826 851
827 851
828 851
829 851
830 851
831 851
832 851
833 851
834 851
835 851
836 851
837 851
838 851
839 851
840 851
841 851
842 851
843 851
844 851
845 851
846 851
847 851
848 851
849 851
850 851
851 851
852 851
853 851
854 851
855 851
856 851
857 851
858 851
859 851
860 851
861 851
862 851
863 851
864 851
865 851
866 851
867 851
868 851
869 851
870 851
871 851
872 851
873 851
874 851
875 851
876 851
877 851
878 851
879 851
880 851
881 851
882 851
883 851
884 851
885 851
886 851
887 851
888 851
889 851
890 851
891 851
892 851
893 851
894 851
895 851
896 851
897 851
898 851
899 851
900 851
901 851
902 851
903 851
904 851
905 851
906 851
907 851
908 851
909 851
910 851
911 851
912 851
913 851
914 851
915 851
916 851
917 851
918 851
919 851
920 851
921 851
922 851
923 851
924 851
925 851
926 851
927 851
928 851
929 851
930 851
931 851
932 851
933 851
934 851
935 851
936 851
937 851
938 851
939 851
940 851
941 851
942 851
943 851
944 851
945 851
946 851
947 851
948 851
949 851
950 851
951 851
952 851
953 851
954 851
955 851
956 851
957 851
958 851
959 851
960 851
961 851
962 851
963 851
964 851
965 851
966 851
967 851
968 851
969 851
970 851
971 851
972 851
973 851
974 851
975 851
976 851
977 851
978 851
979 851
980 851
981 851
982 851
983 851
984 851
985 851
986 851
987 851
988 851
989 851
990 851
991 851
992 851
993 851
994 851
995 851
996 851
997 851
998 851
999 851
Best: [[27,8,14,22,32,20,18],
       [25,15,24,3,4,7],
       [21,6,26,11,16,10,23,30],
       [31,17,2,13],
       [28,19,9,12,5,29]], fitness: 851
